p cnf 606 1427
c ind 594 579 590 498 591 582 600 500 588 596 0
c ind 597 599 603 584 585 592 593 595 598 601 0
c ind 602 516 604 512 513 533 547 581 534 552 0
c ind 577 586 589 549 580 506 583 501 505 576 0
c ind 503 548 502 515 587 504 567 565 521 537 0
c ind 540 553 550 563 569 566 522 560 571 562 0
c ind 564 574 561 568 573 570 541 544 575 545 0
c ind 551 556 538 546 578 559 572 527 529 520 0
c ind 528 517 539 507 524 554 542 511 519 543 0
c ind 558 557 510 532 526 535 530 525 514 523 0
c ind 508 555 531 509 518 536 499 1 0
c ret 330 453 454 455 456 457 458 459 365 460 0
c ret 331 366 461 462 463 464 367 465 466 467 0
c ret 468 469 470 332 471 472 473 474 368 475 0
c ret 369 476 477 333 478 479 480 481 482 483 0
c ret 484 485 486 487 488 489 490 491 492 493 0
c ret 334 494 495 496 497 335 370 336 371 372 0
c ret 373 337 322 338 374 339 375 376 340 377 0
c ret 341 378 342 343 379 344 380 381 323 345 0
c ret 346 382 383 384 385 386 387 388 347 389 0
c ret 348 349 390 391 350 392 393 394 395 396 0
c ret 397 324 351 398 399 400 401 402 403 404 0
c ret 405 352 353 354 355 356 406 357 407 408 0
c ret 325 358 409 410 411 412 413 326 414 415 0
c ret 416 417 418 419 420 421 422 327 423 424 0
c ret 425 426 427 428 359 429 360 430 431 432 0
c ret 433 361 362 434 328 435 436 437 438 363 0
c ret 364 439 440 441 442 443 444 329 445 446 0
c ret 447 448 449 450 451 452 0
2 3 -45 0
2 8 -45 -323 0
-2 45 0
-2 -3 -8 0
-2 -3 323 0
3 -4 -5 0
-3 4 0
-3 5 0
4 376 -424 0
4 -424 -425 0
-4 424 0
-4 -376 425 0
5 -325 -471 0
5 -6 325 0
-5 6 325 0
-5 -325 471 0
6 -327 -450 0
6 -7 327 0
-6 7 327 0
-6 -327 450 0
7 -329 -426 0
7 329 -427 0
-7 329 427 0
-7 -329 426 0
8 -9 -38 465 0
8 -9 -26 -38 0
-8 38 0
-8 9 0
-8 26 -465 0
9 10 24 0
9 10 325 0
9 -24 -325 448 0
-9 -10 325 0
-9 -24 -325 -448 0
-9 -10 24 0
10 21 -327 0
10 11 21 0
-10 -21 0
-10 -11 327 0
11 -14 -329 0
11 12 329 0
-11 -12 329 0
-11 14 -329 0
12 -347 -368 0
12 -13 -368 0
-12 368 0
-12 13 347 0
13 -340 -341 -369 0
-13 340 0
-13 341 0
-13 369 0
12 14 15 0
14 -15 397 0
-12 -14 15 0
-14 -15 -397 0
15 16 348 0
-15 -348 0
-15 -16 0
16 17 -398 0
-16 398 0
-16 -17 0
17 18 401 0
17 18 402 0
-17 -18 0
-17 -401 -402 0
18 19 -20 348 398 0
-18 20 0
-18 -19 0
-18 -348 0
-18 -398 0
19 349 358 -405 0
-19 405 0
-19 -358 0
-19 -349 0
20 -399 401 402 0
-20 399 0
-20 -402 0
-20 -401 0
21 22 -327 0
-21 327 0
-21 -22 0
22 -23 -422 0
11 22 23 0
-11 -22 23 0
-22 -23 422 0
16 23 329 348 0
-23 -329 0
-16 -23 0
-23 -348 0
-15 24 -25 0
15 -24 0
-24 25 0
25 327 329 0
-25 -327 0
-25 -329 0
26 33 456 463 0
26 -27 33 463 0
-26 -33 0
-26 -463 0
-26 27 -456 0
27 -325 456 0
27 -28 325 0
-27 -325 -456 0
-27 28 325 0
28 -327 433 0
28 -29 327 0
-28 -327 -433 0
-28 29 327 0
29 -329 408 0
29 -30 329 0
-29 -329 -408 0
-29 30 329 0
30 -32 355 0
30 -32 -366 0
30 31 -32 0
-30 32 0
-30 -31 -355 366 0
31 385 387 388 -389 0
-31 389 0
-31 -388 0
-31 -385 0
-31 -387 0
32 387 388 0
32 366 385 0
32 385 388 0
32 366 387 0
-32 -385 -387 0
-32 -366 -388 0
33 34 -433 0
33 34 -455 0
-33 -34 0
-33 433 455 0
34 35 325 0
34 -325 433 455 0
-34 -325 -433 0
-34 -35 325 0
-34 -325 -455 0
35 -327 -408 0
35 36 327 0
35 -327 -432 0
-35 -36 327 0
-35 -327 408 432 0
36 -37 329 0
-36 -329 0
-36 37 0
37 -366 385 0
37 366 384 0
-37 366 -384 0
-37 -366 -385 0
38 -39 472 0
-38 -472 0
-38 39 0
39 -325 453 0
39 -40 325 0
-39 -325 -453 0
-39 40 325 0
40 -327 430 0
40 -41 327 0
-40 -327 -430 0
-40 41 327 0
41 -329 406 0
41 -42 329 0
-41 -329 -406 0
-41 42 329 0
42 43 337 0
42 43 359 360 0
-42 -43 0
-42 -337 -360 0
-42 -337 -359 0
43 44 338 -359 -360 0
-43 -338 0
-43 -44 0
-43 360 0
-43 359 0
44 -361 -362 0
-44 361 0
-44 362 0
45 55 -201 0
-9 45 -46 -201 0
9 45 46 -201 0
-45 201 0
9 -45 -46 -55 0
-9 -45 46 -55 0
46 49 -499 0
46 -47 49 0
-46 -49 0
-46 47 499 0
47 -517 -538 0
47 -48 -538 0
-47 538 0
-47 48 517 0
48 -510 -511 -539 0
-48 510 0
-48 511 0
-48 539 0
47 49 50 -499 0
49 -50 -499 567 0
-49 499 0
-49 -50 -567 0
-47 -49 50 0
50 518 568 0
50 -51 518 0
-50 -518 0
-50 51 -568 0
51 52 571 0
51 52 572 0
-51 -52 0
-51 -571 -572 0
52 53 -54 518 568 0
-52 54 0
-52 -53 0
-52 -518 0
-52 -568 0
53 519 528 -575 0
-53 575 0
-53 -528 0
-53 -519 0
54 -569 571 572 0
-54 569 0
-54 -572 0
-54 -571 0
55 56 58 -65 -71 0
55 -56 -58 -65 -71 0
-55 71 0
-55 -56 58 0
-55 65 0
-55 56 -58 0
56 57 479 481 0
-27 56 57 479 0
-56 -479 0
-56 -57 0
27 -56 -481 0
34 57 -456 0
34 57 -480 0
-34 -57 0
-57 456 480 0
58 -63 578 585 0
58 59 -63 585 0
-58 63 0
-58 -585 0
-58 -59 -578 0
59 60 499 0
-59 -499 0
-59 -60 0
60 -62 525 0
60 -62 -536 0
60 61 -62 0
-60 62 0
-60 -61 -525 536 0
61 555 557 558 -559 0
-61 559 0
-61 -558 0
-61 -555 0
-61 -557 0
62 557 558 0
62 536 555 0
62 555 558 0
62 536 557 0
-62 -555 -557 0
-62 -536 -558 0
63 -64 499 0
-63 -499 0
-63 64 0
64 -536 555 0
64 536 554 0
-64 536 -554 0
-64 -536 -555 0
-27 39 65 66 -70 0
-27 -39 65 -66 -70 0
27 39 65 66 70 0
27 -39 65 -66 70 0
27 -65 -70 0
-27 -65 70 0
-39 -65 66 0
39 -65 -66 0
66 -499 576 0
66 -67 499 0
-66 -499 -576 0
-66 67 499 0
67 68 507 0
67 68 529 530 0
-67 -68 0
-67 -507 -530 0
-67 -507 -529 0
68 69 508 -529 -530 0
-68 -508 0
-68 -69 0
-68 530 0
-68 529 0
69 -531 -532 0
-69 531 0
-69 532 0
59 70 499 0
59 70 578 0
-59 -70 0
-70 -499 -578 0
71 -72 -73 198 0
46 71 -73 198 0
-71 73 0
-71 -198 0
-46 -71 72 0
72 499 518 0
-72 -499 0
-72 -518 0
73 74 -76 -79 -84 0
73 -74 76 -79 -84 0
-73 84 0
-73 74 76 0
-73 79 0
-73 -74 -76 0
74 -75 -499 0
74 499 568 0
-74 499 -568 0
-74 75 -499 0
-51 75 568 0
-51 75 518 0
51 -75 0
-75 -518 -568 0
76 -77 -398 0
76 77 78 0
-76 -77 398 0
-76 77 -78 0
77 325 327 329 0
-77 -325 0
-77 -329 0
-77 -327 0
-17 78 398 0
-17 78 348 0
17 -78 0
-78 -348 -398 0
79 80 -82 0
79 80 83 0
-79 -80 0
-79 82 -83 0
80 -81 499 0
34 -64 80 499 0
-80 -499 0
-34 -80 81 0
64 -80 81 0
-67 81 -509 0
-81 509 0
67 -81 0
-34 82 482 0
82 481 482 0
-82 -482 0
34 -82 -481 0
-63 83 586 0
83 578 586 0
-83 -586 0
63 -83 -578 0
82 84 -85 -196 0
-83 84 -85 -196 0
-84 196 0
-84 85 0
-82 83 -84 0
85 -86 -111 -128 -147 0
-85 147 0
-85 86 0
-85 128 0
-85 111 0
-63 86 -87 107 0
34 86 -87 107 0
-86 87 0
-86 -107 0
-34 63 -86 0
-5 87 -88 -89 0
5 87 88 -89 0
-87 89 0
-5 -87 88 0
5 -87 -88 0
88 -499 -596 0
88 499 -597 0
-88 499 597 0
-88 -499 596 0
89 90 91 93 105 0
89 -90 -91 93 105 0
-89 -93 0
-89 -90 91 0
-89 -105 0
-89 90 -91 0
90 499 600 0
48 90 499 521 0
-90 -499 0
-90 -521 -600 0
-48 -90 -600 0
91 -92 493 0
13 91 -92 351 0
-91 92 0
-13 -91 -493 0
-91 -351 -493 0
-25 92 325 0
-92 -325 0
25 -92 0
93 94 -100 0
-93 -94 0
-93 100 0
94 -96 530 0
94 95 -96 532 0
-94 96 0
-94 -95 -530 0
-94 -530 -532 0
95 508 -542 0
-95 -508 0
-95 542 0
96 -97 -98 508 0
96 97 -98 99 0
-96 98 0
-96 97 -99 0
-96 -97 -508 0
97 -509 -543 0
-97 509 0
-97 543 0
98 499 531 0
-98 -499 0
-98 -531 0
99 -532 -542 0
-99 532 0
-99 542 0
100 -102 -103 360 0
100 -101 -102 -103 0
-100 103 0
-100 102 0
-100 101 -360 0
101 362 372 0
101 -338 362 0
-101 -362 0
-101 338 -372 0
-77 102 361 0
-102 -361 0
77 -102 0
103 104 362 0
103 -104 338 0
103 104 372 0
-103 -104 -338 0
-103 104 -362 -372 0
104 -339 -373 0
-104 339 0
-104 373 0
-83 105 -499 0
-83 105 106 0
83 -105 0
-105 -106 499 0
-64 106 560 0
-106 -560 0
64 -106 0
-106 107 -525 0
107 -108 -525 0
-107 525 0
106 -107 108 0
-64 108 -109 0
108 -109 -110 0
-108 109 0
64 -108 110 0
-60 109 553 0
-109 -553 0
60 -109 0
110 556 557 0
110 -536 557 0
110 524 536 -557 0
-110 -524 -557 0
-110 -536 -557 0
-110 536 -556 557 0
111 112 -113 -126 0
-108 111 -113 -126 0
-111 126 0
-111 113 0
108 -111 -112 0
-106 112 499 0
-112 -499 0
106 -112 0
113 -114 -121 -122 -123 0
-113 123 0
-113 114 0
-113 122 0
-113 121 0
114 -116 119 0
114 115 -117 0
114 -116 -117 0
114 115 119 0
-114 117 -119 0
-114 -115 116 0
115 -499 -546 0
115 499 -599 0
-115 499 599 0
-115 -499 546 0
-92 116 -492 0
92 116 -376 0
92 -116 376 0
-92 -116 492 0
117 -118 -481 0
117 481 485 0
-117 481 -485 0
-117 118 -481 0
118 365 366 0
118 353 -366 0
-118 -365 366 0
-118 -353 -366 0
119 -120 -578 0
119 578 588 0
-119 578 -588 0
-119 120 -578 0
120 535 536 0
120 523 -536 0
-120 -535 536 0
-120 -523 -536 0
47 121 -587 0
-119 121 518 0
121 518 -587 0
47 -119 121 0
119 -121 587 0
-47 -121 -518 0
81 -98 -102 122 0
81 98 102 122 0
-81 -122 0
-98 102 -122 0
98 -102 -122 0
-115 123 124 -125 0
-115 123 -124 125 0
116 123 124 -125 0
116 123 -124 125 0
-123 124 125 0
-123 -124 -125 0
115 -116 -123 0
124 603 604 0
124 572 -604 0
124 -572 604 0
-124 -572 -604 0
-124 572 -603 604 0
125 -402 -497 0
125 402 -496 497 0
-125 496 497 0
-125 402 -497 0
-125 -402 497 0
81 106 126 127 0
81 -109 126 127 0
-81 -126 0
-126 -127 0
-106 109 -126 0
127 -544 545 -546 0
-127 544 0
-127 -545 0
-127 546 0
94 128 -129 -140 0
-100 128 -129 -140 0
-128 140 0
-128 129 0
-94 100 -128 0
129 -130 136 137 -138 0
129 -130 -136 -137 -138 0
-129 138 0
-129 -136 137 0
-129 130 0
-129 136 -137 0
130 131 132 133 134 0
130 131 -132 -133 134 0
-130 -134 0
-130 -132 133 0
-130 -131 0
-130 132 -133 0
-92 131 374 -499 0
-92 131 374 -544 0
-131 -374 0
92 -131 0
-131 499 544 0
-77 132 -339 0
-132 339 0
77 -132 0
133 499 -509 0
-133 -499 0
-133 509 0
134 -135 -502 0
134 -502 504 -506 0
-134 502 0
-134 135 -504 0
-134 135 506 0
135 -501 503 -504 505 0
-135 504 0
-135 -505 0
-135 501 0
-135 -503 0
136 499 545 0
-136 -499 0
-136 -545 0
-92 137 375 0
-137 -375 0
92 -137 0
-118 138 139 0
120 138 139 -587 0
-138 -139 0
118 -120 -138 0
118 -138 587 0
77 139 499 -595 0
139 491 499 -595 0
-139 595 0
-139 -499 0
-77 -139 -491 0
140 141 142 143 144 0
140 141 -142 -143 144 0
-140 -144 0
-140 -142 143 0
-140 -141 0
-140 142 -143 0
-77 141 -491 -499 0
-77 141 -491 595 0
77 -141 0
-141 491 0
-141 499 -595 0
142 499 -570 0
-142 -499 0
-142 570 0
-77 143 -400 0
-143 400 0
77 -143 0
144 -145 -514 0
144 146 -514 0
144 -514 533 0
-144 514 0
-144 145 -146 -533 0
145 515 534 0
-145 -515 0
-145 -534 0
146 -513 516 0
146 512 -515 0
146 -513 -515 0
146 512 516 0
-146 515 -516 0
-146 -512 513 0
147 -148 -162 -176 -186 0
-147 186 0
-147 148 0
-147 176 0
-147 162 0
117 148 -149 -157 0
-119 148 -149 -157 0
-148 157 0
-148 149 0
-117 119 -148 0
72 149 150 -151 -153 0
-72 149 -150 -151 -153 0
-149 153 0
-72 -149 150 0
-149 151 0
72 -149 -150 0
150 325 327 329 348 0
-150 -348 0
-150 -329 0
-150 -325 0
-150 -327 0
151 499 -514 0
92 151 -499 0
151 -152 499 0
-92 -151 -499 0
-151 152 499 514 0
152 325 327 329 344 0
-152 -344 0
-152 -329 0
-152 -325 0
-152 -327 0
153 -154 155 -499 0
127 153 -154 155 0
-153 154 0
-153 -155 0
-127 -153 499 0
-120 154 0
154 -522 -561 0
154 537 -561 0
120 -154 561 0
120 -154 522 -537 0
-152 155 156 0
152 -155 0
-155 -156 0
156 499 514 0
-156 -499 0
-156 -514 0
157 158 -159 -499 0
-92 157 158 -159 0
-157 159 0
-157 -158 0
92 -157 499 0
156 158 581 0
158 -564 581 0
-158 -581 0
-156 -158 564 0
-120 159 160 0
118 159 160 0
-159 -160 0
-118 120 -159 0
160 -161 -518 -519 520 0
-160 161 0
-160 518 0
-160 519 0
-160 -520 0
161 -510 -517 0
-161 510 0
-161 517 0
162 -163 -167 -169 -171 0
-162 171 0
-162 163 0
-162 169 0
-162 167 0
163 -164 -165 -589 0
-156 163 -164 -165 0
-163 165 0
-163 164 0
156 -163 589 0
164 -522 526 0
164 -525 527 0
164 -522 -525 0
164 526 527 0
-164 522 -527 0
-164 525 -526 0
165 166 -486 -589 0
165 166 486 589 0
-165 -166 0
-165 -486 589 0
-165 486 -589 0
166 510 -518 521 0
166 510 517 -518 0
-166 -510 0
-166 518 0
-166 -517 -521 0
167 168 514 0
167 168 -499 0
167 168 -564 0
-167 -168 0
-167 499 -514 564 0
168 -481 578 601 0
168 -494 578 601 0
-168 -601 0
-168 -578 0
-168 481 494 0
169 170 -510 -511 0
169 170 510 -519 0
-169 -170 0
-169 -510 511 0
-169 510 519 0
170 522 -523 -524 0
-170 524 0
-170 523 0
-170 -522 0
171 -173 -499 0
171 -173 -544 0
171 -172 -173 0
-171 173 0
-171 172 499 544 0
-92 172 374 0
-172 -374 0
92 -172 0
173 -174 508 0
173 -174 509 0
173 -174 -507 0
-173 174 0
-173 507 -508 -509 0
174 175 514 0
174 175 -540 -549 0
-174 -175 0
-174 -514 540 0
-174 -514 549 0
175 481 494 -601 0
175 481 494 -578 0
-175 -481 0
-175 -494 0
-175 578 601 0
176 -177 -178 -179 -182 0
-176 182 0
-176 177 0
-176 179 0
-176 178 0
177 -500 -527 0
177 357 -548 0
177 357 -500 0
177 -527 -548 0
-177 500 548 0
-177 -357 527 0
178 425 593 0
178 -489 -598 0
178 425 -489 0
178 593 -598 0
-178 -425 598 0
-178 489 -593 0
179 180 181 483 587 0
179 180 181 -483 -587 0
-179 -180 0
-179 -483 587 0
-179 -181 0
-179 483 -587 0
180 425 -598 0
-180 -425 0
-180 598 0
181 -500 -548 0
-181 500 0
-181 548 0
182 -183 -184 -357 0
182 -183 -184 527 0
-182 184 0
-182 183 0
-182 357 -527 0
183 -495 -593 0
183 489 602 0
183 489 -495 0
183 -593 602 0
-183 -489 593 0
-183 495 -602 0
184 -185 -405 -575 0
184 -185 405 575 0
-184 185 0
-184 -405 575 0
-184 405 -575 0
185 495 527 0
185 -561 -602 0
185 527 -602 0
185 495 -561 0
-185 -527 561 0
-185 -495 602 0
120 186 -187 189 -190 0
-186 187 0
-186 -189 0
-120 -186 0
-186 190 0
187 -188 -579 580 -584 0
-187 188 0
-187 579 0
-187 584 0
-187 -580 0
188 -527 -547 548 -552 0
-188 552 0
-188 527 0
-188 547 0
-188 -548 0
189 456 480 484 0
-189 -456 0
-189 -484 0
-189 -480 0
190 -191 -193 424 592 0
190 -191 -193 -424 -592 0
-190 193 0
-190 -424 592 0
-190 191 0
-190 424 -592 0
191 192 -546 0
191 192 376 0
-191 -192 0
-191 -376 546 0
192 -514 564 0
-192 514 0
-192 -564 0
193 194 -195 -498 499 0
-193 195 0
-193 -194 0
-193 498 0
-193 -499 0
194 519 528 0
-194 -519 0
-194 -528 0
195 -376 -549 0
195 540 546 0
195 546 -549 0
195 -376 540 0
-195 -540 549 0
-195 376 -546 0
58 83 196 197 0
-58 -106 196 197 0
-196 -197 0
58 -83 -196 0
-58 106 -196 0
75 -78 197 0
-75 78 197 0
-75 -78 -197 0
75 78 -197 0
198 199 -499 0
49 198 -499 0
126 198 -499 0
-198 499 0
-49 -126 -198 -199 0
199 200 -564 0
199 200 514 0
-199 -200 0
-199 -514 564 0
120 200 561 0
-200 -561 0
-120 -200 0
201 -210 -223 0
201 202 -223 325 0
-201 223 0
-201 -202 210 0
-201 210 -325 0
202 203 209 0
10 202 203 -205 0
-202 -203 0
-10 -202 -209 0
-202 205 -209 0
-25 203 449 452 0
25 203 204 449 -452 0
-25 -203 -452 0
25 -203 -204 0
-203 -449 0
25 -203 452 0
-4 -6 204 0
4 -204 0
6 -204 0
-40 205 -206 451 0
-40 205 442 451 0
40 -205 0
-205 -451 0
-205 206 -442 0
206 207 433 440 0
-28 206 207 440 0
-206 -207 0
-206 -440 0
28 -206 -433 0
207 208 -408 0
207 208 -432 0
-207 -208 0
-207 408 432 0
-36 208 327 0
-208 -327 0
36 -208 0
25 -204 209 -449 0
-209 449 0
-25 -209 0
204 -209 0
210 -211 -212 220 -222 0
-210 222 0
-210 211 0
-210 212 0
-210 -220 0
10 24 211 0
-24 211 448 0
-10 24 -211 0
-24 -211 -448 0
-206 212 -214 -216 0
212 213 -214 -216 0
-212 216 0
-212 214 0
206 -212 -213 0
35 213 441 0
213 433 441 0
-213 -441 0
-35 -213 -433 0
25 214 0
40 214 215 0
214 215 339 0
-25 -214 -215 0
-25 -40 -214 -339 0
215 -374 375 -376 0
-215 374 0
-215 -375 0
-215 376 0
216 217 218 0
-216 -217 0
-216 -218 0
217 -327 445 0
217 -329 445 0
217 -344 445 0
-217 -445 0
-217 327 329 344 0
218 219 442 0
-218 -442 0
-218 -219 0
-118 219 -433 0
219 433 444 0
-219 433 -444 0
118 -219 -433 0
118 220 442 -443 0
118 220 221 442 0
-220 -442 0
-118 -220 0
-220 -221 443 0
221 408 432 0
-221 -408 0
-221 -432 0
-25 215 217 222 -325 0
25 -222 0
-217 -222 0
-222 325 0
-215 -222 0
-9 223 224 -240 0
-150 223 224 -240 0
-223 240 0
-223 -224 0
9 150 -223 0
-22 224 -225 0
224 231 -327 0
-22 224 -327 0
224 -225 231 0
22 -224 -231 0
-224 225 327 0
225 226 230 0
-11 225 226 -228 0
-225 -226 0
11 -225 -230 0
-225 228 -230 0
226 329 423 429 0
226 227 -329 423 -429 0
-226 -329 429 0
-226 -227 -429 0
-226 -423 0
-226 329 -429 0
-4 227 -329 -426 0
-4 227 329 -427 0
4 -227 0
-227 -329 426 0
-227 329 427 0
-41 228 -229 428 0
-41 228 417 428 0
41 -228 0
-228 -428 0
-228 229 -417 0
-36 229 408 415 0
-29 -36 229 415 0
36 -229 0
-229 -415 0
29 -229 -408 0
-227 230 -329 -423 0
-230 329 0
-230 423 0
227 -230 0
231 232 -235 -417 0
231 232 -234 -235 0
-231 235 0
-231 -232 0
-231 234 417 0
229 232 -233 0
-229 -232 0
-232 233 0
-36 233 416 0
233 408 416 0
-233 -416 0
36 -233 -408 0
-118 234 -408 0
234 408 418 0
-234 408 -418 0
118 -234 -408 0
235 236 -239 -417 0
-118 235 236 -239 0
-235 239 0
-235 -236 0
118 -235 417 0
236 237 329 0
-236 -329 0
-236 -237 0
215 237 238 0
-215 -237 0
-237 -238 0
-42 238 -339 0
-238 339 0
42 -238 0
239 -327 329 344 0
239 -327 329 -419 0
-239 327 0
-239 -329 0
-239 -344 419 0
-21 240 -242 0
240 241 -242 327 0
-240 242 0
21 -240 -327 0
21 -240 -241 0
11 241 -329 0
11 241 -348 0
-11 -241 0
-241 329 348 0
-212 242 -243 -317 -318 0
-242 318 0
212 -242 0
-242 317 0
-242 243 0
-56 243 -244 -316 0
56 82 243 -244 0
-243 244 0
-56 -243 316 0
56 -82 -243 0
26 244 -246 -312 0
244 -245 -246 -312 0
-244 312 0
-244 246 0
-26 -244 245 0
-213 245 325 0
-245 -325 0
213 -245 0
-206 246 -247 -308 0
245 246 -247 -308 0
-246 308 0
-246 247 0
206 -245 -246 0
-3 247 -248 305 0
247 -248 305 323 0
-247 248 0
-247 -305 0
3 -247 -323 0
248 -249 -272 -276 -295 0
-248 295 0
-248 249 0
-248 276 0
-248 272 0
249 -250 -267 -483 0
249 -250 -266 -267 0
-249 267 0
-249 250 0
-249 266 483 0
234 250 -251 -258 265 0
-234 -250 0
-250 -265 0
-250 258 0
-250 251 0
219 251 252 -253 0
219 251 -253 -325 0
-251 253 0
-219 -251 0
-251 -252 325 0
-25 -215 252 0
25 -252 0
215 -252 0
253 332 344 0
253 -254 -256 0
253 -256 344 0
253 -254 332 0
-253 254 -344 0
-253 256 -332 0
254 -255 -345 0
254 -255 346 -364 0
-254 255 0
-254 345 -346 0
-254 345 364 0
255 -343 -363 0
255 342 -363 0
-255 363 0
-255 -342 343 0
256 -334 -335 0
256 334 336 0
256 257 -334 0
-256 334 -336 0
-256 -257 -334 335 0
257 -331 333 0
-257 331 0
-257 -333 0
258 -259 -260 -262 -264 0
-258 264 0
-258 259 0
-258 262 0
-258 260 0
77 259 344 0
77 259 -370 -394 0
-77 -259 0
-259 -344 370 0
-259 -344 394 0
260 261 -340 -341 0
260 261 340 -349 0
-260 -261 0
-260 -340 341 0
-260 340 349 0
261 352 -353 -354 0
-261 354 0
-261 353 0
-261 -352 0
262 263 -411 0
262 263 329 394 0
-262 -263 0
-262 -394 411 0
-262 -329 411 0
263 -325 459 0
263 -445 459 0
-263 -459 0
-263 325 445 0
264 326 -330 378 -435 0
264 326 330 -378 -435 0
264 -326 330 -378 435 0
264 -326 -330 378 435 0
-264 -326 -435 0
-264 326 435 0
-264 -330 -378 0
-264 330 378 0
-118 265 -456 0
265 456 467 0
-265 456 -467 0
118 -265 -456 0
-189 -265 266 0
-118 -265 266 0
265 -266 0
118 189 -266 0
220 267 268 -270 0
-152 220 267 268 0
-267 -268 0
-220 -267 0
152 -267 270 0
118 268 465 -466 0
118 268 269 465 0
-268 -465 0
-118 -268 0
-268 -269 466 0
269 433 455 0
-269 -433 0
-269 -455 0
270 271 -459 -475 -486 0
-270 486 0
-270 -271 0
-270 459 0
-270 475 0
271 325 445 0
-271 -325 0
-271 -445 0
272 -273 274 -442 0
-234 272 -273 274 0
-272 273 0
-272 -274 0
234 -272 442 0
12 273 -483 0
-117 273 348 0
273 348 -483 0
12 -117 273 0
117 -273 483 0
-12 -273 -348 0
118 274 391 -392 0
118 274 275 391 0
-274 -391 0
-118 -274 0
-274 -275 392 0
275 386 387 0
275 -366 387 0
275 354 366 -387 0
-275 -354 -387 0
-275 -366 -387 0
-275 366 -386 387 0
276 -277 -282 -285 -288 0
-276 288 0
-276 277 0
-276 285 0
-276 282 0
277 -278 -279 -280 -281 0
-277 281 0
-277 278 0
-277 280 0
-277 279 0
278 410 -414 -434 435 0
-278 -410 0
-278 -435 0
-278 434 0
-278 414 0
279 378 -382 -391 -409 0
-279 -378 0
-279 409 0
-279 391 0
-279 382 0
280 -473 474 -478 0
-280 473 0
-280 -474 0
-280 478 0
281 -439 -457 458 -462 0
-281 462 0
-281 439 0
-281 457 0
-281 -458 0
282 283 284 328 -410 0
282 283 284 -328 410 0
-282 -283 0
-282 328 410 0
-282 -284 0
-282 -328 -410 0
283 355 -356 0
-283 -355 0
-283 356 0
284 352 -357 0
-284 -352 0
-284 357 0
285 -286 287 -324 458 0
285 -286 287 324 -458 0
-285 -287 0
-285 324 458 0
-285 286 0
-285 -324 -458 0
286 -357 -377 0
-286 357 0
-286 377 0
287 322 474 0
-287 -322 0
-287 -474 0
288 -289 -290 -292 -293 0
-288 293 0
-288 289 0
-288 292 0
-288 290 0
215 289 338 0
215 289 -337 0
215 289 339 0
-215 -289 0
-289 337 -338 -339 0
290 291 -436 0
290 291 327 419 0
-290 -291 0
-290 -419 436 0
-290 -327 436 0
291 -329 419 0
291 -344 419 0
-291 -419 0
-291 329 344 0
118 292 344 0
118 292 -329 0
118 292 -394 0
-118 -292 0
-292 329 -344 394 0
293 294 -379 0
293 294 344 370 0
-293 -294 0
-293 -370 379 0
-293 -344 379 0
294 340 -348 351 0
294 340 347 -348 0
-294 -340 0
-294 348 0
-294 -347 -351 0
-118 295 -297 -299 0
295 -296 -297 -299 0
-295 299 0
-295 297 0
118 -295 296 0
296 -352 -391 -417 0
296 367 -391 -417 0
-296 417 0
-296 391 0
-296 352 -367 0
217 297 298 0
217 297 340 0
217 297 347 0
-217 -297 0
-297 -298 -340 -347 0
298 -348 -349 350 0
-298 348 0
-298 349 0
-298 -350 0
299 -300 -303 -468 0
-152 299 -300 -303 0
-299 303 0
-299 300 0
152 -299 468 0
300 301 302 322 0
300 301 302 474 0
-300 -302 0
-300 -301 0
-300 -322 -474 0
301 349 358 0
-301 -349 0
-301 -358 0
302 -468 475 0
-302 468 0
-302 -475 0
303 -304 327 0
303 -327 -436 0
303 -419 -436 0
-303 -327 436 0
-303 304 436 0
-303 304 327 419 0
304 329 344 0
-304 -329 0
-304 -344 0
305 -306 -355 0
305 -307 -355 0
-305 355 0
-305 306 307 0
-37 306 390 0
-306 -390 0
37 -306 0
-30 -37 307 383 0
-30 -275 307 383 0
-307 -383 0
30 -307 0
37 275 -307 0
229 308 -309 0
308 -309 390 0
-308 309 0
-229 -308 -390 0
3 236 309 -310 311 0
-3 -309 0
-309 -311 0
-309 310 0
-236 -309 0
-219 238 310 0
238 310 -442 -465 0
-238 -310 0
219 -310 442 0
219 -310 465 0
-306 307 311 0
306 -311 0
-307 -311 0
206 312 313 0
-233 312 313 327 0
-312 -313 0
-206 233 -312 0
-206 -312 -327 0
-311 313 -329 0
313 314 -329 0
14 313 -329 0
-313 329 0
-14 311 -313 -314 0
-237 314 315 -394 0
-237 314 315 344 0
237 -314 0
-314 -315 0
-314 -344 394 0
118 315 391 0
-315 -391 0
-118 -315 0
-34 316 464 0
316 456 464 0
-316 -464 0
34 -316 -456 0
-26 -265 317 0
316 317 -465 0
-26 317 -465 0
-265 316 317 0
26 -316 -317 0
265 -317 465 0
-214 241 318 -319 320 0
-318 319 0
-318 -320 0
214 -318 0
-241 -318 0
232 319 -417 0
-319 417 0
-232 -319 0
-132 320 321 0
-320 -321 0
132 -320 0
40 321 325 0
-321 -325 0
-40 -321 0
1 2 0
-1 -2 0
605 0

